StudentsNr = 10;
InstructorsNr = 98;
DaysNr = 1;
SlotsPerDay = 60;
AvailabilitySlotsLenght = 20;
RoomNr = 2;
ProgrammNr = 2;
DegreeNr = 3;
RolesNr = 4;
CoursesNr = 3;
InstructorsProgramm = [{2}, {2}, {2}, {2}, {2}, {2}, {2}, {1, 2}, {1, 2}, {1}, {1, 2}, {1, 2}, {1, 2}, {1, 2}, {1, 2}, {1}, {1}, {1, 2}, {1}, {2}, {2}, {1}, {2}, {2}, {2}, {1, 2}, {1}, {2}, {1, 2}, {2}, {2}, {1}, {2}, {2}, {1, 2}, {2}, {1, 2}, {1}, {1}, {1}, {1, 2}, {2}, {1, 2}, {1}, {2}, {2}, {2}, {1}, {2}, {1}, {1}, {2}, {2}, {2}, {1, 2}, {2}, {1}, {2}, {1}, {2}, {2}, {1}, {1, 2}, {1, 2}, {1, 2}, {2}, {1, 2}, {1, 2}, {1, 2}, {2}, {1, 2}, {1, 2}, {2}, {1}, {1}, {1, 2}, {1}, {1}, {2}, {1}, {2}, {1}, {1}, {1, 2}, {1}, {2}, {2}, {2}, {1, 2}, {2}, {1}, {1}, {1, 2}, {2}, {2}, {2}, {1, 2}, {1}];
InstructorRolesPerProgramm = [|{8, 15, 18, 19, 22, 26, 27, 37, 38, 55, 57, 68, 69, 71, 75, 76, 77, 83, 92, 93, 98}, {10, 17, 29, 35, 38, 39, 43, 50, 51, 59, 65, 67, 69, 71, 74, 80, 82, 84, 92}, {9, 10, 12, 13, 15, 18, 22, 26, 27, 32, 39, 43, 50, 57, 64, 65, 68, 69, 71, 72, 74, 83, 85, 92, 97}, {9, 10, 19, 26, 29, 35, 38, 39, 57, 59, 62, 65, 67, 74, 76, 82, 83, 98}|{1, 3, 7, 8, 15, 18, 20, 23, 25, 26, 37, 45, 47, 52, 55, 56, 66, 68, 69, 71, 73, 76, 79, 81, 86, 87, 88, 90, 93}, {4, 5, 6, 20, 21, 25, 29, 31, 34, 35, 43, 45, 49, 52, 54, 58, 60, 65, 67, 69, 71, 73, 79, 81, 84, 87, 88, 90, 94}, {1, 2, 3, 4, 6, 7, 9, 12, 13, 15, 18, 20, 26, 31, 34, 36, 43, 46, 53, 58, 61, 64, 65, 66, 68, 69, 71, 72, 79, 86, 87, 90, 94, 97}, {2, 3, 4, 5, 6, 9, 24, 26, 29, 30, 31, 35, 46, 47, 54, 56, 61, 65, 67, 76, 81, 86, 87, 94}|];
InstructorsAvailability = [|0, 1, 1, |0, 1, 1, |1, 1, 1, |0, 1, 1, |1, 1, 0, |0, 0, 0, |1, 1, 0, |0, 0, 0, |0, 1, 0, |1, 0, 0, |1, 1, 1, |1, 1, 1, |0, 1, 1, |1, 0, 1, |1, 1, 1, |1, 1, 1, |0, 0, 1, |1, 0, 1, |0, 0, 1, |0, 1, 1, |0, 0, 1, |1, 1, 1, |0, 1, 1, |0, 0, 1, |1, 1, 1, |1, 0, 0, |0, 0, 1, |0, 0, 0, |1, 0, 1, |0, 1, 1, |0, 1, 1, |0, 0, 1, |1, 1, 0, |0, 1, 1, |1, 0, 1, |1, 1, 1, |1, 1, 1, |0, 0, 0, |1, 1, 1, |1, 1, 1, |1, 1, 1, |0, 1, 1, |1, 1, 1, |0, 0, 1, |0, 1, 0, |1, 1, 1, |0, 1, 1, |1, 0, 1, |1, 1, 1, |0, 1, 1, |1, 0, 1, |1, 1, 1, |0, 1, 1, |0, 1, 1, |1, 1, 1, |0, 0, 0, |0, 0, 1, |0, 0, 1, |0, 1, 1, |1, 1, 1, |0, 0, 0, |0, 1, 1, |1, 1, 1, |1, 0, 0, |1, 1, 1, |1, 1, 1, |0, 1, 0, |0, 0, 0, |1, 1, 1, |1, 1, 0, |0, 0, 0, |0, 1, 1, |0, 1, 1, |0, 1, 1, |0, 1, 1, |0, 1, 1, |1, 0, 1, |1, 1, 1, |1, 1, 1, |0, 0, 1, |0, 1, 1, |1, 1, 1, |1, 0, 1, |1, 1, 1, |0, 1, 1, |0, 1, 1, |1, 1, 1, |1, 1, 1, |1, 1, 0, |1, 1, 1, |1, 1, 1, |0, 1, 1, |1, 0, 1, |1, 1, 1, |0, 1, 1, |1, 1, 1, |0, 1, 1, |0, 0, 0|];
StudentsProgramm = [1, 2, 2, 1, 1, 2, 1, 1, 2, 1];
StudentsDegree = [1, 2, 1, 3, 3, 1, 3, 3, 2, 1];
StudentsSupervisorId = [51, 71, 68, 51, 38, 45, 43, 22, 70, 43];
StudentsCourseIds = [{1}, {1, 2, 3}, {2}, {1}, {2}, {1}, {2}, {3}, {1, 2, 3}, {1}];
StudentsAvailability = [|1, 1, 1, |0, 0, 0, |0, 1, 1, |1, 1, 0, |1, 1, 1, |1, 1, 1, |0, 0, 1, |1, 1, 1, |0, 1, 0, |1, 1, 1|];
TheoryticalMinCard = [0, 0, 0, 0, 0, 0, 0, 0, 0, 0];
CoursesInstructorIds = [{3, 6, 8, 10, 11, 13, 14, 15, 16, 17, 20, 21, 25, 27, 28, 29, 30, 32, 34, 35, 37, 38, 41, 42, 43, 44, 46, 47, 50, 51, 54, 55, 57, 61, 63, 64, 68, 70, 72, 76, 77, 78, 80, 81, 83, 84, 86, 87, 91, 92, 96, 98}, {1, 3, 4, 5, 7, 9, 10, 11, 13, 14, 15, 16, 19, 20, 21, 22, 23, 26, 27, 29, 31, 32, 34, 36, 38, 40, 42, 45, 46, 47, 48, 53, 54, 55, 57, 58, 59, 60, 61, 63, 66, 67, 68, 69, 70, 72, 74, 75, 76, 78, 79, 83, 84, 85, 88, 89, 91, 92, 93, 94, 96, 98}, {1, 39, 49, 57, 73, 77}];
RolesDemands = [15, 19, 10, 9];
RolesContinuity = [];
ExamLen = [1, 2, 1, 1, 1, 1, 1, 1, 2, 1];
LunchTsMinLen = 1;
LunchStarts = [18..33];
SupervisorAvailable = 5;
OptimalLunchLenght = [0, 1];
OptimalStartTs = [0, 0];
OptimalFinishTs = [0, 60];
MinimizeRooms = 200;
RolesSoftContinuity = [|1, 2, 3, 4|1, 0, 4, 4|];
SameDegreeInRoom = 10;
Mergeability = 2;
